ALGO = Fast
##BMIX = 1
EDIFF = 0.0001
EDIFFG = -0.05
ENCUT = 280
IBRION = 0 #For MD simulation
ICHARG = 0 #Starting the simulation from scratch
ISIF = 0 #It is zero for MD simulation
#MDALGO = 2
ISMEAR = 2 #When working with metals
ISPIN = 1 #Non magnetic, bcoz need just screenshot to run DFT afterwards
ISYM = 0 #Should be set when doing MD
KBLOCK = 100
LCHARG = False
##LMAXMIX = 4
##LORBIT = 11
LPLANE = False
LREAL = Auto
LSCALU = False
LWAVE = True
MAXMIX = 20
NBLOCK = 1
NELM = 500
NELMIN = 4
NPAR = 4
NSIM = 4
NSW = 2100
POTIM = 2.0 #Timestep 2fs
PREC = Low
SIGMA = 0.05
SMASS = 0
TEBEG = 950
TEEND = 2000
